Problem:    
Rows:       260
Columns:    89 (72 integer, 72 binary)
Non-zeros:  974
Status:     INTEGER OPTIMAL
Objective:  value = 22.976744 (MINimum)

   No.   Row name        Activity     Lower bound   Upper bound
------ ------------    ------------- ------------- -------------
     1 r.5                   22.9767             0               
     2 r.6                   11.5549      -992.069               
     3 r.7                   1022.98             0               
     4 r.8                  -989.472       -992.78               
     5 r.9                   1022.98             0               
     6 r.10                 -989.791      -992.246               
     7 r.11                  22.9767             0               
     8 r.12                  10.9996      -992.874               
     9 r.13                  1022.98             0               
    10 r.14                   -998.1      -999.523               
    11 r.15                  22.9767             0               
    12 r.16                  11.4714      -998.389               
    13 r.17                  1022.98             0               
    14 r.18                     -989      -999.209               
    15 r.19                  22.9767             0               
    16 r.20                  10.9996      -997.484               
    17 r.21                  22.9767             0               
    18 r.22                  16.8198      -996.274               
    19 r.23                  1022.98             0               
    20 r.24                  -983.18      -996.188               
    21 r.25                  1022.98             0               
    22 r.26                 -999.687      -999.687               
    23 r.27                  22.9767             0               
    24 r.28                  -999.27       -999.27               
    25 r.29                  1022.98             0               
    26 r.30                 -977.023      -988.023               
    27 r.31                  22.9767             0               
    28 r.32                  22.9767      -993.668               
    29 r.33                  22.9767             0               
    30 r.34                  22.9767      -988.202               
    31 r.35                  1022.98             0               
    32 r.36                 -977.023      -993.843               
    33 r.37                        1             1             = 
    34 r.38                        1             1             = 
    35 r.39                        1             1             = 
    36 r.40                        1             1             = 
    37 r.41                        1             1             = 
    38 r.42                        1             1             = 
    39 r.43                        1             1             = 
    40 r.44                        1             1             = 
    41 r.45                     1001             2               
    42 r.46                    -1001         -1001               
    43 r.47                  1999.21      -992.246               
    44 r.48                     1001             2               
    45 r.49                    -1001         -1001               
    46 r.50                     2000      -992.874               
    47 r.51                     1001             2               
    48 r.52                    -1001         -1001               
    49 r.53                   1990.9      -999.523               
    50 r.54                     1001             2               
    51 r.55                    -1001         -1001               
    52 r.56                  2000.47      -998.389               
    53 r.57                     1001             2               
    54 r.58                    -1001         -1001               
    55 r.59                     2000      -999.209               
    56 r.60                     1001             2               
    57 r.61                    -1001         -1001               
    58 r.62                     2000      -997.484               
    59 r.63                     1000             2               
    60 r.64                    -1000         -1001               
    61 r.65                  2005.82      -996.274               
    62 r.66                        2             2               
    63 r.67                       -2         -1001               
    64 r.68                  -994.18      -996.188               
    65 r.69                  10.1317      -992.069               
    66 r.70                 -990.895       -992.78               
    67 r.71                  1011.77      -992.069               
    68 r.72                  10.7416       -992.78               
    69 r.73                 -988.023      -988.023               
    70 r.74                  11.9771      -993.668               
    71 r.75                 -988.023      -988.023               
    72 r.76                  11.9771      -993.668               
    73 r.77                  11.9771      -988.202               
    74 r.78                 -988.023      -993.843               
    75 r.79                  11.9771      -988.202               
    76 r.80                 -988.023      -993.843               
    77 r.81                     1001             2               
    78 r.82                    -1001         -1001               
    79 r.83                  2001.35        7.9307               
    80 r.84                     1001             2               
    81 r.85                    -1001         -1001               
    82 r.86                  1999.53       7.21954               
    83 r.87                        2             2               
    84 r.88                       -2         -1001               
    85 r.89                 -8.30894      -999.523               
    86 r.90                     1000             2               
    87 r.91                    -1000         -1001               
    88 r.92                  2000.47      -998.389               
    89 r.93                        2             2               
    90 r.94                       -2         -1001               
    91 r.95                 -999.209      -999.209               
    92 r.96                     1000             2               
    93 r.97                    -1000         -1001               
    94 r.98                     2000      -997.484               
    95 r.99                     1001             2               
    96 r.100                   -1001         -1001               
    97 r.101                 2006.61      -996.274               
    98 r.102                    1001             2               
    99 r.103                   -1001         -1001               
   100 r.104                 2005.82      -996.188               
   101 r.105                -991.214      -992.246               
   102 r.106                 9.57647      -992.874               
   103 r.107                 10.4227      -992.246               
   104 r.108                 1011.21      -992.874               
   105 r.109                -987.232      -988.023               
   106 r.110                 12.7677      -993.668               
   107 r.111                -988.023      -988.023               
   108 r.112                 11.9771      -993.668               
   109 r.113                    1001             2               
   110 r.114                   -1001         -1001               
   111 r.115                 2012.77      -988.202               
   112 r.116                    1001             2               
   113 r.117                   -1001         -1001               
   114 r.118                 2011.98      -993.843               
   115 r.119                    1001             2               
   116 r.120                   -1001         -1001               
   117 r.121                  2009.1        7.9307               
   118 r.122                    1001             2               
   119 r.123                   -1001         -1001               
   120 r.124                 1999.53       7.21954               
   121 r.125                       2             2               
   122 r.126                      -2         -1001               
   123 r.127                  7.7537        7.7537               
   124 r.128                    1000             2               
   125 r.129                   -1000         -1001               
   126 r.130                    2000       7.12551               
   127 r.131                       2             2               
   128 r.132                      -2         -1001               
   129 r.133                -991.456      -999.209               
   130 r.134                    1000             2               
   131 r.135                   -1000         -1001               
   132 r.136                    2000      -997.484               
   133 r.137                    1001             2               
   134 r.138                   -1001         -1001               
   135 r.139                 2014.36      -996.274               
   136 r.140                    1001             2               
   137 r.141                   -1001         -1001               
   138 r.142                 2005.82      -996.188               
   139 r.143                -999.523      -999.523               
   140 r.144                 10.0483      -998.389               
   141 r.145                 2.11381      -999.523               
   142 r.146                 1011.69      -998.389               
   143 r.147                -979.479      -988.023               
   144 r.148                 20.5214      -993.668               
   145 r.149                -988.023      -988.023               
   146 r.150                 11.9771      -993.668               
   147 r.151                 20.5214      -988.202               
   148 r.152                -979.479      -993.843               
   149 r.153                 11.9771      -988.202               
   150 r.154                -988.023      -993.843               
   151 r.155                    1001             2               
   152 r.156                   -1001         -1001               
   153 r.157                 2000.56        7.9307               
   154 r.158                    1001             2               
   155 r.159                   -1001         -1001               
   156 r.160                 1999.53       7.21954               
   157 r.161                       2             2               
   158 r.162                      -2         -1001               
   159 r.163                 999.209        7.7537               
   160 r.164                    1000             2               
   161 r.165                   -1000         -1001               
   162 r.166                    2000       7.12551               
   163 r.167                       2             2               
   164 r.168                      -2         -1001               
   165 r.169                   990.9      0.476911               
   166 r.170                    1000             2               
   167 r.171                   -1000         -1001               
   168 r.172                 2000.47        1.6105               
   169 r.173                    1001             2               
   170 r.174                   -1001         -1001               
   171 r.175                 2005.82      -996.274               
   172 r.176                    1001             2               
   173 r.177                   -1001         -1001               
   174 r.178                 2005.82      -996.188               
   175 r.179                -990.424      -999.209               
   176 r.180                 9.57647      -997.484               
   177 r.181                 11.2134      -999.209               
   178 r.182                 1011.21      -997.484               
   179 r.183                -988.023      -988.023               
   180 r.184                 11.9771      -993.668               
   181 r.185                -988.023      -988.023               
   182 r.186                 11.9771      -993.668               
   183 r.187                    1001             2               
   184 r.188                   -1001         -1001               
   185 r.189                 2011.98      -988.202               
   186 r.190                    1001             2               
   187 r.191                   -1001         -1001               
   188 r.192                 2011.98      -993.843               
   189 r.193                    1000             2               
   190 r.194                   -1000         -1001               
   191 r.195                 1994.74        7.9307               
   192 r.196                       2             2               
   193 r.197                      -2         -1001               
   194 r.198                 993.708       7.21954               
   195 r.199                    1001             2               
   196 r.200                   -1001         -1001               
   197 r.201                 1993.39        7.7537               
   198 r.202                    1001             2               
   199 r.203                   -1001         -1001               
   200 r.204                 1994.18       7.12551               
   201 r.205                    1001             2               
   202 r.206                   -1001         -1001               
   203 r.207                 1985.08      0.476911               
   204 r.208                    1001             2               
   205 r.209                   -1001         -1001               
   206 r.210                 1994.65        1.6105               
   207 r.211                    1001             2               
   208 r.212                   -1001         -1001               
   209 r.213                 1994.18      0.790622               
   210 r.214                    1001             2               
   211 r.215                   -1001         -1001               
   212 r.216                 1994.18       2.51639               
   213 r.217                 15.3966      -996.274               
   214 r.218                -984.603      -996.188               
   215 r.219                 1017.03      -996.274               
   216 r.220                 17.0335      -996.188               
   217 r.221                    1001             2               
   218 r.222                   -1001         -1001               
   219 r.223                 2006.16      -988.023               
   220 r.224                    1001             2               
   221 r.225                   -1001         -1001               
   222 r.226                 2006.16      -993.668               
   223 r.227                 6.15694      -988.202               
   224 r.228                -993.843      -993.843               
   225 r.229                 6.15694      -988.202               
   226 r.230                -993.843      -993.843               
   227 r.231                -978.446      -988.023               
   228 r.232                 21.5536      -993.668               
   229 r.233                 23.1905      -988.023               
   230 r.234                 1023.19      -993.668               
   231 r.235                    1001             2               
   232 r.236                   -1001         -1001               
   233 r.237                 1993.84       3.72554               
   234 r.238                    1001             2               
   235 r.239                   -1001         -1001               
   236 r.240                 1993.84       3.81217               
   237 r.241                    1001             2               
   238 r.242                   -1001         -1001               
   239 r.243                    2000      -988.202               
   240 r.244                    1001             2               
   241 r.245                   -1001         -1001               
   242 r.246                    2000      -993.843               
   243 r.247                    1001             2               
   244 r.248                   -1001         -1001               
   245 r.249                 1987.23        7.7537               
   246 r.250                    1001             2               
   247 r.251                   -1001         -1001               
   248 r.252                 1988.02       7.12551               
   249 r.253                    1001             2               
   250 r.254                   -1001         -1001               
   251 r.255                 1988.02      0.790622               
   252 r.256                    1001             2               
   253 r.257                   -1001         -1001               
   254 r.258                 1988.02       2.51639               
   255 r.259                    1001             2               
   256 r.260                   -1001         -1001               
   257 r.261                    2000       11.9771               
   258 r.262                    1001             2               
   259 r.263                   -1001         -1001               
   260 r.264                    2000       6.33211               

   No. Column name       Activity     Lower bound   Upper bound
------ ------------    ------------- ------------- -------------
     1 tt                    22.9767             0               
     2 s_1_1        *              0             0             1 
     3 t_1_1                 11.9771             0               
     4 s_1_8        *              0             0             1 
     5 s_1_7        *              1             0             1 
     6 s_2_1        *              1             0             1 
     7 t_2_1                 11.9771             0               
     8 s_2_8        *              1             0             1 
     9 s_2_7        *              0             0             1 
    10 s_1_2        *              1             0             1 
    11 t_1_2                 12.7677             0               
    12 s_2_2        *              0             0             1 
    13 t_2_2                 11.9771             0               
    14 s_1_3        *              1             0             1 
    15 t_1_3                 20.5214             0               
    16 s_2_3        *              0             0             1 
    17 t_2_3                 11.9771             0               
    18 s_1_4        *              1             0             1 
    19 t_1_4                 11.9771             0               
    20 s_2_4        *              0             0             1 
    21 t_2_4                 11.9771             0               
    22 s_1_5        *              0             0             1 
    23 t_1_5                 6.15694             0               
    24 s_2_5        *              1             0             1 
    25 t_2_5                 6.15694             0               
    26 s_1_6        *              1             0             1 
    27 t_1_6                 21.5536             0               
    28 s_2_6        *              0             0             1 
    29 t_2_6                 1023.19             0               
    30 t_1_7                       0             0               
    31 t_2_7                       0             0               
    32 t_1_8                       0             0               
    33 t_2_8                       0             0               
    34 r_1_1_2      *              1             0             1 
    35 u_1_1_2      *              0             0             1 
    36 r_2_1_2      *              1             0             1 
    37 u_2_1_2      *              0             0             1 
    38 r_1_1_3      *              1             0             1 
    39 u_1_1_3      *              0             0             1 
    40 r_2_1_3      *              1             0             1 
    41 u_2_1_3      *              0             0             1 
    42 r_1_1_4      *              1             0             1 
    43 u_1_1_4      *              0             0             1 
    44 r_2_1_4      *              1             0             1 
    45 u_2_1_4      *              0             0             1 
    46 r_1_1_5      *              1             0             1 
    47 u_1_1_5      *              0             0             1 
    48 r_2_1_5      *              0             0             1 
    49 u_2_1_5      *              1             0             1 
    50 r_1_2_3      *              0             0             1 
    51 u_1_2_3      *              0             0             1 
    52 r_2_2_3      *              1             0             1 
    53 u_2_2_3      *              0             0             1 
    54 r_1_2_4      *              0             0             1 
    55 u_1_2_4      *              1             0             1 
    56 r_2_2_4      *              1             0             1 
    57 u_2_2_4      *              0             0             1 
    58 r_1_2_5      *              1             0             1 
    59 u_1_2_5      *              0             0             1 
    60 r_2_2_5      *              1             0             1 
    61 u_2_2_5      *              0             0             1 
    62 r_1_2_8      *              1             0             1 
    63 u_1_2_8      *              0             0             1 
    64 r_2_2_8      *              1             0             1 
    65 u_2_2_8      *              0             0             1 
    66 r_1_3_4      *              0             0             1 
    67 u_1_3_4      *              1             0             1 
    68 r_2_3_4      *              1             0             1 
    69 u_2_3_4      *              0             0             1 
    70 r_1_3_5      *              1             0             1 
    71 u_1_3_5      *              0             0             1 
    72 r_2_3_5      *              1             0             1 
    73 u_2_3_5      *              0             0             1 
    74 r_1_4_5      *              1             0             1 
    75 u_1_4_5      *              0             0             1 
    76 r_2_4_5      *              1             0             1 
    77 u_2_4_5      *              0             0             1 
    78 r_1_4_8      *              1             0             1 
    79 u_1_4_8      *              0             0             1 
    80 r_2_4_8      *              1             0             1 
    81 u_2_4_8      *              0             0             1 
    82 r_1_5_7      *              1             0             1 
    83 u_1_5_7      *              0             0             1 
    84 r_2_5_7      *              1             0             1 
    85 u_2_5_7      *              0             0             1 
    86 r_1_7_8      *              1             0             1 
    87 u_1_7_8      *              0             0             1 
    88 r_2_7_8      *              1             0             1 
    89 u_2_7_8      *              0             0             1 

Integer feasibility conditions:

KKT.PE: max.abs.err = 2.27e-13 on row 43
        max.rel.err = 5.68e-17 on row 236
        High quality

KKT.PB: max.abs.err = 0.00e+00 on row 0
        max.rel.err = 0.00e+00 on row 0
        High quality

End of output
